SCIP Status        : solving was interrupted [time limit reached]
Total Time         :    3600.00
  solving          :    3600.00
  presolving       :       0.20 (included in solving)
  reading          :       0.00
  copying          :       0.64 (28 #copies) (minimal 0.00, maximal 0.04, average 0.02)
Original Problem   :
  Problem name     : bbbenchmark/g05_80.0.cut
  Variables        : 81 (80 binary, 0 integer, 0 implicit integer, 1 continuous)
  Constraints      : 1 initial, 1 maximal
  Objective        : minimize, 1 non-zeros (abs.min = 1, abs.max = 1)
Presolved Problem  :
  Problem name     : t_bbbenchmark/g05_80.0.cut
  Variables        : 1609 (80 binary, 0 integer, 1527 implicit integer, 2 continuous)
  Constraints      : 1531 initial, 5375 maximal
  Objective        : minimize, 1 non-zeros (abs.min = 1, abs.max = 1)
  Nonzeros         : 6301 constraint, 162 clique table
Presolvers         :   ExecTime  SetupTime  Calls  FixedVars   AggrVars   ChgTypes  ChgBounds   AddHoles    DelCons    AddCons   ChgSides   ChgCoefs
  boundshift       :       0.00       0.00      0          0          0          0          0          0          0          0          0          0
  convertinttobin  :       0.00       0.00      0          0          0          0          0          0          0          0          0          0
  domcol           :       0.00       0.00      1          0          0          0          0          0          0          0          0          0
  dualagg          :       0.00       0.00      0          0          0          0          0          0          0          0          0          0
  dualcomp         :       0.00       0.00      1          0          0          0          0          0          0          0          0          0
  dualinfer        :       0.00       0.00      0          0          0          0          0          0          0          0          0          0
  dualsparsify     :       0.00       0.00      1          0          0          0          0          0          0          0          0          0
  gateextraction   :       0.00       0.00      0          0          0          0          0          0          0          0          0          0
  implics          :       0.00       0.00      2          0          0          0          0          0          0          0          0          0
  inttobinary      :       0.00       0.00      0          0          0          0          0          0          0          0          0          0
  qpkktref         :       0.00       0.00      0          0          0          0          0          0          0          0          0          0
  redvub           :       0.00       0.00      0          0          0          0          0          0          0          0          0          0
  sparsify         :       0.00       0.00      1          0          0          0          0          0          0          0          0          0
  stuffing         :       0.00       0.00      0          0          0          0          0          0          0          0          0          0
  trivial          :       0.00       0.00      4          0          0          0          0          0          0          0          0          0
  tworowbnd        :       0.00       0.00      0          0          0          0          0          0          0          0          0          0
  dualfix          :       0.00       0.00      4          0          0          0          0          0          0          0          0          0
  genvbounds       :       0.00       0.00      0          0          0          0          0          0          0          0          0          0
  probing          :       0.11       0.00      1          0          0          0          0          0          0          0          0          0
  pseudoobj        :       0.00       0.00      1          0          0          0          1          0          0          0          0          0
  symmetry         :       0.00       0.00      0          0          0          0          0          0          0          0          0          0
  vbounds          :       0.00       0.00      1          0          0          0          0          0          0          0          0          0
  varbound         :       0.00       0.00      2          0          0          0          0          0          0          0          0          0
  and              :       0.00       0.01      2          0          0          0          0          0          0          0          0          0
  linear           :       0.00       0.00      2          0          0          0          0          0          0          0          0          0
  logicor          :       0.00       0.00      0          0          0          0          0          0          0          0          0          0
  bounddisjunction :       0.00       0.00      0          0          0          0          0          0          0          0          0          0
  nonlinear        :       0.09       0.00      5          0          0          0          1          0          0       1530          0          0
  benders          :       0.00       0.00      0          0          0          0          0          0          0          0          0          0
  components       :       0.00       0.00      1          0          0          0          0          0          0          0          0          0
  root node        :          -          -      -          0          -          -         26          -          -          -          -          -
Constraints        :     Number  MaxNumber  #Separate #Propagate    #EnfoLP    #EnfoRelax  #EnfoPS    #Check   #ResProp    Cutoffs    DomReds       Cuts    Applied      Conss   Children
  benderslp        :          0          0          0          0      70329          0          0       2480          0          0          0          0          0          0          0
  integral         :          0          0          0          0      70329          0          0       2480          0          0       2745          0          0       1240     138612
  varbound         :          1          1         22       7223          0          0          0         40          0          0        120          0          0          0          0
  and              :       1527       1527      90214     482008         15          0          0         40     166203          1    2504244      18130      17775          0          0
  linear           :          3          3         22     482010         15          0          0         38          3          0      12113          0          0          0          0
  logicor          :          0+      3844          0     124776          0          0          0          0        188        400         44          0          0          0          0
  bounddisjunction :          0+         5          0        865          0          0          0          0          0          0          0          0          0          0          0
  benders          :          0          0          0          0         15          0          0         36          0          0          0          0          0          0          0
  countsols        :          0          0          0          0         15          0          0         36          0          0          0          0          0          0          0
  components       :          0          0          0          0          0          0          0          0          0          0          0          0          0          0          0
Constraint Timings :  TotalTime  SetupTime   Separate  Propagate     EnfoLP     EnfoPS     EnfoRelax   Check    ResProp    SB-Prop
  benderslp        :       0.11       0.00       0.00       0.00       0.11       0.00       0.00       0.00       0.00       0.00
  integral         :      47.10       0.00       0.00       0.00      47.10       0.00       0.00       0.00       0.00       0.00
  varbound         :       0.00       0.00       0.00       0.00       0.00       0.00       0.00       0.00       0.00       0.00
  and              :      72.87       0.01      47.81      24.60       0.00       0.00       0.00       0.00       0.10       0.35
  linear           :       0.59       0.00       0.00       0.57       0.00       0.00       0.00       0.00       0.00       0.02
  logicor          :       5.46       0.00       0.00       5.46       0.00       0.00       0.00       0.00       0.00       0.00
  bounddisjunction :       0.01       0.00       0.00       0.01       0.00       0.00       0.00       0.00       0.00       0.00
  benders          :       0.00       0.00       0.00       0.00       0.00       0.00       0.00       0.00       0.00       0.00
  countsols        :       0.00       0.00       0.00       0.00       0.00       0.00       0.00       0.00       0.00       0.00
  components       :       0.16       0.00       0.00       0.16       0.00       0.00       0.00       0.00       0.00       0.00
Propagators        : #Propagate   #ResProp    Cutoffs    DomReds
  dualfix          :          4          0          0          0
  genvbounds       :          0          0          0          0
  nlobbt           :          0          0          0          0
  obbt             :          0          0          0          0
  probing          :          0          0          0          0
  pseudoobj        :     326660          0          0         26
  redcost          :     177099          0          0     116598
  rootredcost      :         25          0          0          0
  symmetry         :          0          0          0          0
  vbounds          :      43119          0          0          0
Propagator Timings :  TotalTime  SetupTime   Presolve  Propagate    ResProp    SB-Prop
  dualfix          :       0.00       0.00       0.00       0.00       0.00       0.00
  genvbounds       :       0.37       0.00       0.00       0.37       0.00       0.00
  nlobbt           :       0.00       0.00       0.00       0.00       0.00       0.00
  obbt             :       0.00       0.00       0.00       0.00       0.00       0.00
  probing          :       0.11       0.00       0.11       0.00       0.00       0.00
  pseudoobj        :       0.45       0.00       0.00       0.45       0.00       0.00
  redcost          :      10.07       0.00       0.00      10.06       0.00       0.01
  rootredcost      :       0.52       0.00       0.00       0.51       0.00       0.01
  symmetry         :       0.32       0.00       0.00       0.31       0.00       0.01
  vbounds          :       0.29       0.00       0.00       0.29       0.00       0.00
Conflict Analysis  :       Time      Calls    Success    DomReds  Conflicts   Literals    Reconvs ReconvLits   Dualrays   Nonzeros   LP Iters   (pool size: [10000,10000])
  propagation      :       0.01        401        336          -        377       44.6          0        0.0          -          -          -
  infeasible LP    :       0.00          0          0          -          0        0.0          0        0.0          0        0.0          0
  bound exceed. LP :      10.17       7130       4569          -      55807       67.0          0        0.0          0        0.0      22265
  strong branching :       0.00          0          0          -          0        0.0          0        0.0          -          -          0
  pseudo solution  :       0.00          0          0          -          0        0.0          0        0.0          -          -          -
  applied globally :       0.19          -          -          0      17083       70.7          -          -          0          -          -
  applied locally  :          -          -          -          0          0        0.0          -          -          0          -          -
Separators         :   ExecTime  SetupTime      Calls  RootCalls    Cutoffs    DomReds  FoundCuts ViaPoolAdd  DirectAdd    Applied ViaPoolApp  DirectApp      Conss
  cut pool         :       3.64          -      19422         44          -          -      34139     585197          -          -          -          -          -    (maximal pool size:       2038)
  aggregation      :      19.52       0.00       4385         22          0          0        336       2166          0        480        480          0          0
  > cmir           :          -          -          -          -          -          -          -       2166          0        480        480          0          -
  > flowcover      :          -          -          -          -          -          -          -          0          0          0          0          0          -
  > knapsackcover  :          -          -          -          -          -          -          -          0          0          0          0          0          -
  cgmip            :       0.00       0.00          0          0          0          0          0          0          0          0          0          0          0
  clique           :       0.00       0.00         22         22          0          0          0          0          0          0          0          0          0
  closecuts        :       0.00       0.00          0          0          0          0          0          0          0          0          0          0          0
  convexproj       :       0.00       0.00          0          0          0          0          0          0          0          0          0          0          0
  disjunctive      :       0.00       0.00          0          0          0          0          0          0          0          0          0          0          0
  eccuts           :       0.00       0.00          0          0          0          0          0          0          0          0          0          0          0
  gauge            :       0.00       0.00          0          0          0          0          0          0          0          0          0          0          0
  gomory           :       0.00       0.00          0          0          0          0          0          0          0          0          0          0          0
  > gomorymi       :          -          -          -          -          -          -          -          0          0          0          0          0          -
  > strongcg       :          -          -          -          -          -          -          -          0          0          0          0          0          -
  impliedbounds    :       0.24       0.00       4385         22          0          0          2          1          0          1          1          0          0
  interlattice     :       0.00       0.00          0          0          0          0          0          0          0          0          0          0          0
  interminor       :       0.00       0.00          0          0          0          0          0          0          0          0          0          0          0
  intersub         :       0.03       0.00          3          3          0          0          1          0          1          1          0          1          0
  intobj           :       0.00       0.00          0          0          0          0          0          0          0          0          0          0          0
  mcf              :       0.00       0.00          1          1          0          0          0          0          0          0          0          0          0
  minor            :       0.01       0.00          0          0          0          0          0          0          0          0          0          0          0
  mixing           :       0.02       0.00       4387         22          0          0          0          0          0          0          0          0          0
  oddcycle         :       0.00       0.00          0          0          0          0          0          0          0          0          0          0          0
  rapidlearning    :       0.00       0.00          0          0          0          0          0          0          0          0          0          0          0
  rlt              :       0.00       0.00         10         10          0          0          0          0          0          0          0          0          0
  zerohalf         :      34.39       0.00       4051         20          0          0      33801     583030          0     100035     100035          0          0
Cutselectors       :   ExecTime  SetupTime      Calls  RootCalls   Selected     Forced   Filtered  RootSelec   RootForc   RootFilt 
  hybrid           :       0.66       0.00      23129         21     118292          0     485036        164          0         38
Pricers            :   ExecTime  SetupTime      Calls       Vars
  problem variables:       0.00          -          0          0
Branching Rules    :   ExecTime  SetupTime   BranchLP  BranchExt   BranchPS    Cutoffs    DomReds       Cuts      Conss   Children
  allfullstrong    :       0.00       0.00          0          0          0          0          0          0          0          0
  cloud            :       0.00       0.00          0          0          0          0          0          0          0          0
  distribution     :       0.00       0.00          0          0          0          0          0          0          0          0
  fullstrong       :       0.00       0.00          0          0          0          0          0          0          0          0
  inference        :       0.00       0.00          0          0          0          0          0          0          0          0
  leastinf         :       0.00       0.00          0          0          0          0          0          0          0          0
  lookahead        :       0.00       0.00          0          0          0          0          0          0          0          0
  mostinf          :       0.00       0.00          0          0          0          0          0          0          0          0
  multaggr         :       0.00       0.00          0          0          0          0          0          0          0          0
  nodereopt        :       0.00       0.00          0          0          0          0          0          0          0          0
  pscost           :       0.00       0.00          0          0          0          0          0          0          0          0
  random           :       0.00       0.00          0          0          0          0          0          0          0          0
  relpscost        :      46.88       0.00      70314          0          0          0       2745          0       1241     138612
  vanillafullstrong:       0.00       0.00          0          0          0          0          0          0          0          0
Primal Heuristics  :   ExecTime  SetupTime      Calls      Found       Best
  LP solutions     :       0.06          -          -         15         15
  relax solutions  :       0.00          -          -          0          0
  pseudo solutions :       0.00          -          -          0          0
  strong branching :       0.00          -          -          1          1
  actconsdiving    :       0.00       0.00          0          0          0
  adaptivediving   :       3.04       0.00         42          0          0
  alns             :       1.63       0.00         14          1          1
  bound            :       0.00       0.00          0          0          0
  clique           :       0.00       0.00          1          0          0
  coefdiving       :       0.00       0.00          0          0          0
  completesol      :       0.00       0.00          0          0          0
  conflictdiving   :      28.30       0.00        414          0          0
  crossover        :       0.80       0.00          7          1          1
  dins             :       0.00       0.00          0          0          0
  distributiondivin:      49.43       0.00        415          0          0
  dps              :       0.00       0.00          0          0          0
  dualval          :       0.00       0.00          0          0          0
  farkasdiving     :       0.00       0.00          0          0          0
  feaspump         :       0.06       0.00          1          1          1
  fixandinfer      :       0.00       0.00          0          0          0
  fracdiving       :      33.70       0.00        415          0          0
  gins             :       0.07       0.00          0          0          0
  guideddiving     :      29.95       0.00        414          2          2
  indicator        :       0.05       0.00          0          0          0
  indicatordiving  :       0.00       0.00          0          0          0
  intdiving        :       0.00       0.00          0          0          0
  intshifting      :       0.22       0.00         44          0          0
  linesearchdiving :      31.69       0.00        414          0          0
  localbranching   :       0.00       0.00          0          0          0
  locks            :       0.01       0.00          1          0          0
  lpface           :       0.18       0.00          0          0          0
  mpec             :      59.75       0.00          2          0          0
  multistart       :       0.00       0.00          0          0          0
  mutation         :       0.00       0.00          0          0          0
  nlpdiving        :      13.30       0.00          8          0          0
  objpscostdiving  :      51.82       0.00         84         13          0
  octane           :       0.00       0.00          0          0          0
  ofins            :       0.08       0.00          0          0          0
  oneopt           :       0.13       0.00         31          0          0
  padm             :       0.00       0.00          0          0          0
  proximity        :       0.00       0.00          0          0          0
  pscostdiving     :      37.61       0.00        414          3          3
  randrounding     :       0.17       0.00       2440          0          0
  rens             :       0.00       0.00          0          0          0
  reoptsols        :       0.00       0.00          0          0          0
  repair           :       0.00       0.00          0          0          0
  rins             :       7.74       0.00          6          2          1
  rootsoldiving    :      43.20       0.00         49          2          0
  rounding         :       1.13       0.00       4298          0          0
  shiftandpropagate:       0.00       0.00          0          0          0
  shifting         :      42.44       0.00      10565          5          5
  simplerounding   :       0.08       0.00          0          0          0
  subnlp           :     126.41       0.00          0          0          0
  trivial          :       0.00       0.00          2          2          2
  trivialnegation  :       0.00       0.00          0          0          0
  trustregion      :       0.00       0.00          0          0          0
  trysol           :       0.13       0.00          0          0          0
  twoopt           :       0.00       0.00          0          0          0
  undercover       :       1.23       0.00          1          0          0
  vbounds          :       0.00       0.00          0          0          0
  veclendiving     :      30.68       0.00        415          0          0
  zeroobj          :       0.00       0.00          0          0          0
  zirounding       :       0.43       0.00       1000          0          0
  other solutions  :          -          -          -          0          -
Diving (single)    :      Calls      Nodes   LP Iters Backtracks  Conflicts   MinDepth   MaxDepth   AvgDepth  RoundSols  NLeafSols  MinSolDpt  MaxSolDpt  AvgSolDpt
  actconsdiving    :          0          -          -          -          -          -          -          -          -          -          -          -          -
  coefdiving       :          0          -          -          -          -          -          -          -          -          -          -          -          -
  conflictdiving   :        414      12905     313788        453       9820         36         66       48.7          0          -          -          -          -
  distributiondivin:        415       9858     397438        460       4883         34         54       40.5          0          -          -          -          -
  farkasdiving     :          0          -          -          -          -          -          -          -          -          -          -          -          -
  fracdiving       :        415      34396     354462        406       4675         44        478       99.7          0          -          -          -          -
  guideddiving     :        414      31201     323147        309       4414         48        379       92.6          0          2         74         75       74.5
  indicatordiving  :          0          -          -          -          -          -          -          -          -          -          -          -          -
  linesearchdiving :        414      11073     374245        520       8615         31         65       43.3          0          -          -          -          -
  pscostdiving     :        414      11830     413386        418       5872         36         61       45.5          0          3         48         58       54.3
  veclendiving     :        415      12335     346482        456      13244         38         65       46.8          0          -          -          -          -
Diving (adaptive)  :      Calls      Nodes   LP Iters Backtracks  Conflicts   MinDepth   MaxDepth   AvgDepth  RoundSols  NLeafSols  MinSolDpt  MaxSolDpt  AvgSolDpt
  actconsdiving    :          9        221       8759         11        117         40         43       40.9          0          -          -          -          -
  coefdiving       :         18        526      12390         18        553         37         61       45.9          0          -          -          -          -
  conflictdiving   :          0          -          -          -          -          -          -          -          -          -          -          -          -
  distributiondivin:          0          -          -          -          -          -          -          -          -          -          -          -          -
  farkasdiving     :          0          -          -          -          -          -          -          -          -          -          -          -          -
  fracdiving       :          3        216       2325          2         18         55        131       88.7          0          -          -          -          -
  guideddiving     :          4        392       2851          4         25         70        229      116.0          0          -          -          -          -
  indicatordiving  :          0          -          -          -          -          -          -          -          -          -          -          -          -
  linesearchdiving :          0          -          -          -          -          -          -          -          -          -          -          -          -
  pscostdiving     :          2         73       2118          2         31         47         53       50.0          0          -          -          -          -
  veclendiving     :          6        171       5066          6        172         41         53       45.0          0          -          -          -          -
Neighborhoods      :      Calls  SetupTime  SolveTime SolveNodes       Sols       Best       Exp3  EpsGreedy        UCB TgtFixRate  Opt  Inf Node Stal  Sol  Usr Othr Actv
  rens             :          1       0.04       0.01          0          0          0    0.00000   -1.00000    0.56582      0.700    0    1    0    0    0    0    0    1
  rins             :          1       0.01       0.00          0          0          0    0.00000   -1.00000    0.56582      0.700    0    1    0    0    0    0    0    1
  mutation         :          1       0.04       0.01          1          0          0    0.00000   -1.00000    0.56495      0.700    0    1    0    0    0    0    0    1
  localbranching   :          2       0.07       0.06         45          0          0    0.00000   -1.00000    0.48934      0.550    0    2    0    0    0    0    0    1
  crossover        :          2       0.08       0.04         31          0          0    0.00000   -1.00000    0.50714      0.550    0    2    0    0    0    0    0    1
  proximity        :          2       0.06       0.15         79          0          0    0.00000   -1.00000    0.43475      0.850    0    1    0    1    0    0    0    1
  zeroobjective    :          2       0.06       0.07         50          0          0    0.00000   -1.00000    0.47155      0.850    0    1    0    1    0    0    0    1
  dins             :          3       0.15       0.72        542          1          1    0.00000   -1.00000    0.48608      0.662    1    1    0    1    0    0    0    1
  trustregion      :          0       0.00       0.00          0          0          0    0.00000   -1.00000    1.00000      0.900    0    0    0    0    0    0    0    0
Expressions        :   #IntEval  IntEvalTi   #RevProp  RevPropTi    DomReds    Cutoffs  #Estimate  EstimTime  Branching  #Simplify SimplifyTi Simplified
  pow              :          0       0.00          0       0.00          0          0          0       0.00          0          0       0.00          0
  prod             :       6320       0.00          0       0.00          0          0          0       0.00          0       4687       0.02          0
  sum              :          8       0.00          2       0.00          0          0          0       0.00          0          3       0.01          2
  var              :       5476       0.01          0       0.00          0          0          0       0.00          0      11145       0.01          0
  varidx           :          0       0.00          0       0.00          0          0          0       0.00          0          0       0.00          0
LP                 :       Time      Calls Iterations  Iter/call   Iter/sec  Time-0-It Calls-0-It    ItLimit
  primal LP        :     108.39       9804          0       0.00       0.00     108.32       9804
  dual LP          :    2573.46     155437   13059573      91.90    5074.71       5.80      13327
  lex dual LP      :       0.00          0          0       0.00          -
  barrier LP       :       0.00          0          0       0.00          -       0.00          0
  resolve instable :       0.00          0          0       0.00          -
  diving/probing LP:     290.93      13688    3124959     228.30   10741.27
  strong branching :      23.30       2378     233326      98.12   10013.99          -          -         42
    (at root node) :          -         19       2536     133.47          -
  conflict analysis:       3.25       2282      22265       9.76    6850.77
NLP relaxation     :
  solve time       :      13.28 (8 calls)
  convexity        :  nonconvex (4 linear rows, 0 convex ineq., 0 nonconvex ineq., 1527 nonlinear eq. or two-sided ineq.)
NLP Solvers        :  #Problems  ProblemTi    #Solves  SolveTime      #Iter  Time/Iter      #Okay #TimeLimit #IterLimit #LObjLimit #Interrupt  #NumError #EvalError  #OutOfMem #LicenseEr #OtherTerm   #GlobOpt    #LocOpt  #Feasible #LocInfeas #GlobInfea #Unbounded   #Unknown
  ipopt            :          3       5.17         13      73.15        530       0.14         13          0          0          0          0          0          0          0          0          0          0          0          0          5          0          0          8
B&B Tree           :
  number of runs   :          1
  nodes            :     117984 (69306 internal, 48678 leaves)
  feasible leaves  :         15
  infeas. leaves   :         10
  objective leaves :      48652
  nodes (total)    :     117984 (69306 internal, 48678 leaves)
  nodes left       :      20561
  max depth        :         50
  max depth (total):         50
  backtracks       :      25545 (21.7%)
  early backtracks :          0 (0.0%)
  nodes exc. ref.  :          0 (0.0%)
  delayed cutoffs  :          0
  repropagations   :         28 (25 domain reductions, 0 cutoffs)
  avg switch length:       4.31
  switching time   :     130.80
Estim. Tree Size   :     236104
Estimation Tree    : 138613 nodes (118052 visited, 69306 internal, 48746 leaves, 20561 open), weight: 0.0000 completed 0.0960
Estimations        :      estim      value      trend resolution     smooth
  wbe              : 18484355576          -          -          -          -
  tree-profile     :         -1          -          -          -          -
  gap              :    1269426    0.77485    0.00002         64    1387385
  tree-weight      :     236104    0.00001    0.00000         64     235837
  leaf-frequency   :    2807829    0.41292    0.00000         64    2887104
  ssg              :    4749251    0.84838   -0.00002         64    4675390
  open-nodes       :     236104 20561.00000   17.54495         64     235837
Root Node          :
  First LP value   : -1.00000000000000e+00
  First LP Iters   :       1045 (20900.00 Iter/sec)
  First LP Time    :       0.05
  Final Dual Bound : -9.42624878665508e-01
  Final Root Iters :       1624
  Root LP Estimate : -5.12206848857526e-01
Solution           :
  Solutions found  :         48 (32 improvements)
  First Solution   : +1.00000000000000e+05   (in run 1, after 0 nodes, 0.07 seconds, depth 0, found by <trivial>)
  Gap First Sol.   :   infinite
  Gap Last Sol.    :      31.54 %
  Primal Bound     : -5.81012658227848e-01   (in run 1, after 76342 nodes, 2309.85 seconds, depth 20, found by <alns>)
  Dual Bound       : -7.49841772151900e-01
  Gap              :      29.06 %
Integrals          :      Total       Avg%
  primal-dual      :   93829.42      26.06
  primal-ref       :          -          - (not evaluated)
  dual-ref         :          -          - (not evaluated)
